certificates/rado_a9_c300_N34.cnf
c Rad2 upper bound instance: x1 + 9*x2 - x3 = 300, interval [1,34]
p cnf 34 196
1 7 34 0
-1 -7 -34 0
2 8 34 0
-2 -8 -34 0
3 9 34 0
-3 -9 -34 0
1 4 33 0
-1 -4 -33 0
4 10 34 0
-4 -10 -34 0
2 5 33 0
-2 -5 -33 0
5 11 34 0
-5 -11 -34 0
3 6 33 0
-3 -6 -33 0
6 12 34 0
-6 -12 -34 0
4 7 33 0
-4 -7 -33 0
7 13 34 0
-7 -13 -34 0
5 8 33 0
-5 -8 -33 0
8 14 34 0
-8 -14 -34 0
6 9 33 0
-6 -9 -33 0
9 15 34 0
-9 -15 -34 0
7 10 33 0
-7 -10 -33 0
10 16 34 0
-10 -16 -34 0
8 11 33 0
-8 -11 -33 0
11 17 34 0
-11 -17 -34 0
9 12 33 0
-9 -12 -33 0
12 18 34 0
-12 -18 -34 0
1 13 32 0
-1 -13 -32 0
10 13 33 0
-10 -13 -33 0
13 19 34 0
-13 -19 -34 0
2 14 32 0
-2 -14 -32 0
11 14 33 0
-11 -14 -33 0
14 20 34 0
-14 -20 -34 0
3 15 32 0
-3 -15 -32 0
12 15 33 0
-12 -15 -33 0
15 21 34 0
-15 -21 -34 0
4 16 32 0
-4 -16 -32 0
13 16 33 0
-13 -16 -33 0
16 22 34 0
-16 -22 -34 0
5 17 32 0
-5 -17 -32 0
14 17 33 0
-14 -17 -33 0
17 23 34 0
-17 -23 -34 0
6 18 32 0
-6 -18 -32 0
15 18 33 0
-15 -18 -33 0
18 24 34 0
-18 -24 -34 0
7 19 32 0
-7 -19 -32 0
16 19 33 0
-16 -19 -33 0
19 25 34 0
-19 -25 -34 0
8 20 32 0
-8 -20 -32 0
17 20 33 0
-17 -20 -33 0
20 26 34 0
-20 -26 -34 0
9 21 32 0
-9 -21 -32 0
18 21 33 0
-18 -21 -33 0
21 27 34 0
-21 -27 -34 0
1 22 31 0
-1 -22 -31 0
10 22 32 0
-10 -22 -32 0
19 22 33 0
-19 -22 -33 0
22 28 34 0
-22 -28 -34 0
2 23 31 0
-2 -23 -31 0
11 23 32 0
-11 -23 -32 0
20 23 33 0
-20 -23 -33 0
23 29 34 0
-23 -29 -34 0
3 24 31 0
-3 -24 -31 0
12 24 32 0
-12 -24 -32 0
21 24 33 0
-21 -24 -33 0
24 30 34 0
-24 -30 -34 0
4 25 31 0
-4 -25 -31 0
13 25 32 0
-13 -25 -32 0
22 25 33 0
-22 -25 -33 0
25 31 34 0
-25 -31 -34 0
5 26 31 0
-5 -26 -31 0
14 26 32 0
-14 -26 -32 0
23 26 33 0
-23 -26 -33 0
26 32 34 0
-26 -32 -34 0
6 27 31 0
-6 -27 -31 0
15 27 32 0
-15 -27 -32 0
24 27 33 0
-24 -27 -33 0
27 33 34 0
-27 -33 -34 0
7 28 31 0
-7 -28 -31 0
16 28 32 0
-16 -28 -32 0
25 28 33 0
-25 -28 -33 0
28 34 0
-28 -34 0
8 29 31 0
-8 -29 -31 0
17 29 32 0
-17 -29 -32 0
26 29 33 0
-26 -29 -33 0
9 30 31 0
-9 -30 -31 0
18 30 32 0
-18 -30 -32 0
27 30 33 0
-27 -30 -33 0
1 30 31 0
-1 -30 -31 0
10 31 0
-10 -31 0
19 31 32 0
-19 -31 -32 0
28 31 33 0
-28 -31 -33 0
2 30 32 0
-2 -30 -32 0
11 31 32 0
-11 -31 -32 0
20 32 0
-20 -32 0
29 32 33 0
-29 -32 -33 0
3 30 33 0
-3 -30 -33 0
12 31 33 0
-12 -31 -33 0
21 32 33 0
-21 -32 -33 0
30 33 0
-30 -33 0
4 30 34 0
-4 -30 -34 0
13 31 34 0
-13 -31 -34 0
22 32 34 0
-22 -32 -34 0
31 33 34 0
-31 -33 -34 0
