certificates/rado_a9_c300_N34.drat
-33 -34 0
-34 0
28 0
33 0
-30 0
-25 0
-31 0
4 0
24 0
19 0
0
